(set-option :produce-models true)
(set-logic QF_UF)
(declare-fun p8() Bool)
(declare-fun p21() Bool)
(declare-fun p1() Bool)
(declare-fun p11() Bool)
(declare-fun p5() Bool)
(declare-fun p0() Bool)
(declare-fun p29() Bool)
(declare-fun p12() Bool)
(declare-fun p9() Bool)
(declare-fun p13() Bool)
(declare-fun p19() Bool)
(declare-fun p3() Bool)
(declare-fun p10() Bool)
(declare-fun p15() Bool)
(declare-fun p7() Bool)
(declare-fun p28() Bool)
(declare-fun p24() Bool)
(declare-fun p14() Bool)
(declare-fun p20() Bool)
(declare-fun p26() Bool)
(declare-fun p22() Bool)
(declare-fun p18() Bool)
(declare-fun p25() Bool)
(declare-fun p16() Bool)
(declare-fun p17() Bool)
(declare-fun p4() Bool)
(declare-fun p2() Bool)
(declare-fun p27() Bool)
(declare-fun p6() Bool)
(declare-fun p23() Bool)
(assert
(and (or (not p8) p21 p8) (or (not p1) (not p11) p5) (or (not p0) p29 (not p12)) (or (not p11) (not p11) p9) (or (not p13) p19 p3) (or p10 (not p15) p1) (or p11 p3 p7) (or (not p28) p24 p14) (or (not p3) (not p20) p26) (or (not p22) p18 p25) (or p16 p19 p25) (or p17 (not p29) (not p10)) (or (not p28) (not p4) p2) (or (not p18) (not p20) (not p9)) (or p4 p15 (not p11)) (or (not p12) (not p17) (not p21)) (or p13 (not p5) (not p2)) (or (not p7) p25 p19) (or (not p13) (not p27) (not p10)) (or (not p9) (not p19) (not p9)) (or (not p28) (not p21) (not p11)) (or (not p4) p10 (not p12)) (or (not p8) (not p2) p3) (or p27 p3 (not p29)) (or (not p1) p14 (not p4)) (or p9 p19 (not p20)) (or p17 (not p22) (not p27)) (or p18 (not p13) (not p26)) (or p9 p20 (not p18)) (or (not p11) (not p29) p3) (or (not p17) p29 (not p25)) (or p18 p10 (not p1)) (or p24 p7 p28) (or p29 (not p26) (not p29)) (or p16 (not p20) p8) (or (not p7) p29 p10) (or p10 p5 (not p12)) (or (not p16) (not p26) p6) (or p2 p16 (not p6)) (or (not p3) p9 p19) (or p28 (not p29) p19) (or p18 (not p0) p11) (or (not p4) p5 p12) (or (not p27) (not p15) (not p5)) (or p22 (not p0) (not p25)) (or p13 p28 (not p27)) (or p17 p14 p23) (or p12 (not p10) p17) (or p23 (not p18) (not p3)) (or (not p21) (not p9) (not p26)) (or (not p7) (not p28) (not p5)) (or p3 p28 p12) (or p7 p25 (not p14)) (or (not p21) p12 p6) (or (not p5) (not p15) (not p8)) (or (not p14) p24 (not p3)) (or p10 p24 p9) (or p6 p4 (not p12)) (or p13 (not p26) p22) (or p0 (not p9) p25) (or (not p3) p15 p3) (or p27 p10 (not p20)) (or (not p25) p27 (not p14)) (or (not p24) (not p16) (not p28)) (or p7 (not p17) (not p13)) (or (not p13) (not p2) p12) (or (not p11) p0 p0) (or (not p0) p13 (not p18)) (or p1 p22 p13) (or (not p4) p7 p22) (or p12 p17 p20) (or (not p24) (not p20) (not p26)) (or p24 (not p10) p5) (or (not p7) (not p16) (not p1)) (or p10 (not p16) (not p13)) (or p20 p10 (not p24)) (or p27 p5 (not p9)) (or (not p11) (not p20) (not p10)) (or p15 (not p28) p4) (or p15 (not p17) (not p20)) (or p9 p5 (not p14)) (or (not p11) (not p14) (not p7)) (or p6 p15 (not p29)) (or p4 (not p6) p8) (or (not p22) (not p9) (not p2)) (or p26 p18 (not p25)) (or p17 p9 p21) (or p19 p26 p13) (or (not p28) p11 p2) (or p0 p8 (not p2)) (or p24 p4 p21) (or (not p20) p13 (not p18)) (or p8 p4 (not p15)) (or p20 p23 (not p8)) (or (not p0) (not p18) (not p14)) (or (not p14) p1 (not p27)) (or (not p5) (not p27) p13) (or p5 p8 (not p28)) (or p29 p20 (not p6)) (or (not p0) p28 p19) (or p17 (not p22) (not p26)) (or (not p4) (not p12) (not p9)) (or p3 (not p2) (not p16)) (or (not p3) p19 (not p21)) (or p11 (not p20) p2) (or p10 (not p15) (not p29)) (or (not p8) p26 (not p25)) (or (not p7) p7 p16) (or p11 p17 p27) (or p7 (not p5) p0) (or (not p8) (not p23) p22) (or p23 (not p0) p23) (or p17 p1 p9) (or (not p26) (not p16) (not p24)) (or p12 p29 p7) (or p8 p21 p29) (or p22 p2 p28) (or p7 p26 (not p12)) (or p3 p17 p16) (or p0 (not p21) p13) (or p0 (not p17) (not p25)) (or p13 (not p15) (not p26)) (or p26 (not p17) (not p22)) (or (not p25) (not p4) p11) (or p21 (not p5) p3) (or (not p10) p15 p20) (or (not p27) (not p27) (not p21)) (or (not p15) p1 (not p4)))
)
(check-sat)
(get-model)
